proyfinal/src/viki/013/experimentInOfficeAgust.take6.output/8ad79be3-8794-445e-92ef-0cceab3fc436.als.dat
{'cnf.clauses': '118081',
 'cnf.totvars': '69608',
 'conflict literals': '11',
 'conflicts': '8',
 'decisions': '7227',
 'memused.mb': '17.45',
 'outcome': 'UNSAT',
 'propagations': '34686',
 'restarts': '1',
 'solver.msecs': 35,
 'task.msecs': 91}
