proyfinal/src/viki/013/experimentInOfficeAgust.take6.output/8ad79be3-8794-445e-92ef-0cceab3fc436.als.out
Reading from standard input... Use '--help' for help.
============================[ Problem Statistics ]=============================
|                                                                             |
|  Number of variables:         69608                                         |
|  Number of clauses:          118081                                         |
|  Parse time:                   0.03 s                                       |
|                                                                             |
============================[ Search Statistics ]==============================
| Conflicts |          ORIGINAL         |          LEARNT          | Progress |
|           |    Vars  Clauses Literals |    Limit  Clauses Lit/Cl |          |
===============================================================================
===============================================================================
restarts              : 1
conflicts             : 8              (228 /sec)
decisions             : 7227           (0.00 % random) (205692 /sec)
propagations          : 34686          (987221 /sec)
conflict literals     : 11             (0.00 % deleted)
Memory used           : 17.45 MB
CPU time              : 0.035135 s

UNSATISFIABLE
